c uprop, v00.0, 
c reading from data/prog139.c.cnf
c done reading: 0.003541
p cnf 147 607
-52 -73 0
-52 -69 0
52 69 73 0
-46 69 73 0
-46 -69 -73 0
46 69 -73 0
46 -69 73 0
52 -64 0
-62 -64 0
-52 62 64 0
-52 -57 62 0
52 -57 -62 0
52 57 62 0
-52 57 -62 0
-53 64 0
-50 -53 0
50 53 -64 0
-48 50 -64 0
-48 -50 64 0
48 50 64 0
48 -50 -64 0
-47 53 0
-44 -47 0
44 47 -53 0
44 -53 -71 0
-44 53 -71 0
44 53 71 0
-44 -53 71 0
47 -75 0
-66 -75 0
-47 66 75 0
-47 66 -76 0
47 -66 -76 0
47 66 76 0
-47 -66 76 0
75 -77 0
-59 -77 0
59 -75 77 0
59 -75 -78 0
-59 75 -78 0
59 75 78 0
-59 -75 78 0
77 -79 0
-55 -79 0
55 -77 79 0
55 -77 -80 0
-55 77 -80 0
55 77 80 0
-55 -77 80 0
69 -81 0
73 -81 0
-69 -73 81 0
-69 -73 -82 0
69 73 -82 0
-69 73 82 0
69 -73 82 0
-62 -69 83 0
-62 -81 83 0
-69 -81 83 0
62 69 -83 0
62 81 -83 0
69 81 -83 0
62 -83 -84 0
69 -83 -84 0
81 -83 -84 0
-62 83 84 0
-69 83 84 0
-81 83 84 0
-62 -69 -81 84 0
62 69 81 -84 0
-50 -62 85 0
-50 -83 85 0
-62 -83 85 0
50 62 -85 0
50 83 -85 0
62 83 -85 0
50 -85 -86 0
62 -85 -86 0
83 -85 -86 0
-50 85 86 0
-62 85 86 0
-83 85 86 0
-50 -62 -83 86 0
50 62 83 -86 0
-44 -50 87 0
-44 -85 87 0
-50 -85 87 0
44 50 -87 0
44 85 -87 0
50 85 -87 0
-42 44 -87 0
-42 50 -87 0
-42 85 -87 0
42 -44 87 0
42 -50 87 0
42 -85 87 0
42 -44 -50 -85 0
-42 44 50 85 0
41 -44 -66 0
41 -66 -87 0
41 -44 -87 0
-41 44 66 0
-41 66 87 0
-41 44 87 0
-40 -41 66 0
-40 -41 44 0
-40 -41 87 0
40 41 -66 0
40 41 -44 0
40 41 -87 0
40 -44 -66 -87 0
-40 44 66 87 0
39 -59 -66 0
39 -41 -59 0
39 -41 -66 0
-39 59 66 0
-39 41 59 0
-39 41 66 0
-38 -39 59 0
-38 -39 66 0
-38 -39 41 0
38 39 -59 0
38 39 -66 0
38 39 -41 0
38 -41 -59 -66 0
-38 41 59 66 0
37 -55 -59 0
37 -39 -55 0
37 -39 -59 0
-37 55 59 0
-37 39 55 0
-37 39 59 0
-37 55 -72 0
-37 59 -72 0
-37 39 -72 0
37 -55 72 0
37 -59 72 0
37 -39 72 0
-39 -55 -59 72 0
39 55 59 -72 0
55 -68 0
37 -68 0
-37 -55 68 0
-37 -55 -61 0
37 55 -61 0
37 -55 61 0
-37 55 61 0
42 -49 0
-49 73 0
-42 49 -73 0
-42 -43 -73 0
42 -43 73 0
-42 43 73 0
42 43 -73 0
-40 65 -69 0
-40 -49 65 0
-49 65 -69 0
40 -65 69 0
40 49 -65 0
49 -65 69 0
40 -58 -65 0
-58 -65 69 0
49 -58 -65 0
-40 58 65 0
58 65 -69 0
-49 58 65 0
-40 -49 58 -69 0
40 49 -58 69 0
-38 54 -62 0
-38 54 -65 0
54 -62 -65 0
38 -54 62 0
38 -54 65 0
-54 62 65 0
-38 54 0
54 -62 0
54 -65 0
-38 -62 -65 0
36 -50 -72 0
36 -54 -72 0
36 -50 -54 0
-36 50 72 0
-36 54 72 0
-36 50 54 0
36 -72 0
36 -50 0
36 -54 0
-50 -54 -72 0
35 -44 -61 0
35 -36 -61 0
35 -36 -44 0
-35 44 61 0
-35 36 61 0
-35 36 44 0
35 -61 0
35 -44 0
35 -36 0
-36 -44 -61 0
34 -66 -68 0
34 -35 -68 0
34 -35 -66 0
-34 66 68 0
-34 35 68 0
-34 35 66 0
34 -68 0
34 -66 0
34 -35 0
-35 -66 -68 0
-33 59 0
-33 34 0
33 -34 -59 0
34 -59 0
-34 59 0
-33 -55 0
33 -55 0
-33 55 0
-32 -73 0
-32 -82 0
32 73 82 0
-31 73 82 0
-31 -73 -82 0
31 -73 82 0
31 73 -82 0
-30 32 0
-30 -84 0
30 -32 84 0
-29 -32 84 0
-29 32 -84 0
29 32 84 0
29 -32 -84 0
-28 30 0
-28 -86 0
28 -30 86 0
-27 -30 86 0
-27 30 -86 0
27 30 86 0
27 -30 -86 0
-26 28 0
-26 -43 0
26 -28 43 0
-25 -28 43 0
-25 28 -43 0
25 28 43 0
25 -28 -43 0
-24 26 0
-24 -58 0
24 -26 58 0
-23 -26 58 0
-23 26 -58 0
23 26 58 0
23 -26 -58 0
-22 24 0
22 -24 0
-21 -24 0
21 24 0
22 -88 0
-22 88 0
-22 -89 0
22 89 0
88 -90 0
-88 90 0
-88 -91 0
88 91 0
90 -92 0
-90 92 0
-90 -93 0
90 93 0
92 -94 0
-92 94 0
-92 -95 0
92 95 0
94 -96 0
-94 96 0
-94 -97 0
94 97 0
96 -98 0
-96 98 0
-96 -99 0
96 99 0
-100 -102 0
-102 -103 0
100 102 103 0
100 103 -105 0
-100 -103 -105 0
-100 103 105 0
100 -103 105 0
102 -106 0
-106 -107 0
-102 106 107 0
-102 107 -108 0
102 -107 -108 0
102 107 108 0
-102 -107 108 0
106 -109 0
-109 -110 0
-106 109 110 0
-106 110 -112 0
106 -110 -112 0
106 110 112 0
-106 -110 112 0
109 -113 0
-113 -114 0
-109 113 114 0
-109 114 -115 0
109 -114 -115 0
109 114 115 0
-109 -114 115 0
113 -116 0
-116 -117 0
-113 116 117 0
-113 117 -119 0
113 -117 -119 0
113 117 119 0
-113 -117 119 0
116 -120 0
-120 -121 0
-116 120 121 0
-116 121 -122 0
116 -121 -122 0
116 121 122 0
-116 -121 122 0
120 -123 0
-123 -124 0
-120 123 124 0
-120 124 -126 0
120 -124 -126 0
120 124 126 0
-120 -124 126 0
103 -127 0
100 -127 0
-100 -103 127 0
-100 -103 -128 0
100 103 -128 0
100 -103 128 0
-100 103 128 0
-103 -107 129 0
-107 -127 129 0
-103 -127 129 0
103 107 -129 0
107 127 -129 0
103 127 -129 0
107 -129 -130 0
103 -129 -130 0
127 -129 -130 0
-107 129 130 0
-103 129 130 0
-127 129 130 0
-103 -107 -127 130 0
103 107 127 -130 0
-107 -110 131 0
-110 -129 131 0
-107 -129 131 0
107 110 -131 0
110 129 -131 0
107 129 -131 0
110 -131 -132 0
107 -131 -132 0
129 -131 -132 0
-110 131 132 0
-107 131 132 0
-129 131 132 0
-107 -110 -129 132 0
107 110 129 -132 0
-110 -114 133 0
-114 -131 133 0
-110 -131 133 0
110 114 -133 0
114 131 -133 0
110 131 -133 0
114 -133 -134 0
110 -133 -134 0
131 -133 -134 0
-114 133 134 0
-110 133 134 0
-131 133 134 0
-110 -114 -131 134 0
110 114 131 -134 0
-114 -117 135 0
-117 -133 135 0
-114 -133 135 0
114 117 -135 0
117 133 -135 0
114 133 -135 0
117 -135 -136 0
114 -135 -136 0
133 -135 -136 0
-117 135 136 0
-114 135 136 0
-133 135 136 0
-114 -117 -133 136 0
114 117 133 -136 0
-117 -121 137 0
-121 -135 137 0
-117 -135 137 0
117 121 -137 0
121 135 -137 0
117 135 -137 0
-74 121 -137 0
-74 117 -137 0
-74 135 -137 0
74 -121 137 0
74 -117 137 0
74 -135 137 0
74 -117 -121 -135 0
-74 117 121 135 0
70 -121 -124 0
70 -124 -137 0
70 -121 -137 0
-70 121 124 0
-70 124 137 0
-70 121 137 0
-63 -70 124 0
-63 -70 121 0
-63 -70 137 0
63 70 -124 0
63 70 -121 0
63 70 -137 0
63 -121 -124 -137 0
-63 121 124 137 0
-51 124 0
-51 70 0
51 -70 -124 0
-45 -70 -124 0
-45 70 124 0
45 70 -124 0
45 -70 124 0
-67 134 0
-67 100 0
67 -100 -134 0
-60 -100 -134 0
-60 100 134 0
60 100 -134 0
60 -100 134 0
56 -103 -136 0
56 -67 -136 0
56 -67 -103 0
-56 103 136 0
-56 67 136 0
-56 67 103 0
-56 -101 136 0
-56 -101 103 0
-56 67 -101 0
56 101 -136 0
56 101 -103 0
56 -67 101 0
-67 101 -103 -136 0
67 -101 103 136 0
-74 104 -107 0
-56 -74 104 0
-56 104 -107 0
74 -104 107 0
56 74 -104 0
56 -104 107 0
-74 104 0
104 -107 0
-56 104 0
-56 -74 -107 0
-63 -110 111 0
-63 -104 111 0
-104 -110 111 0
63 110 -111 0
63 104 -111 0
104 110 -111 0
-63 111 0
-110 111 0
-104 111 0
-63 -104 -110 0
-45 -114 118 0
-45 -111 118 0
-111 -114 118 0
45 114 -118 0
45 111 -118 0
111 114 -118 0
-45 118 0
-114 118 0
-111 118 0
-45 -111 -114 0
-51 -117 125 0
-51 -118 125 0
-117 -118 125 0
51 117 -125 0
51 118 -125 0
117 118 -125 0
-51 125 0
-117 125 0
-118 125 0
-51 -117 -118 0
121 -138 0
125 -138 0
-121 -125 138 0
-121 125 0
121 -125 0
-124 -138 0
-124 138 0
124 -138 0
-100 -139 0
-128 -139 0
100 128 139 0
100 128 -140 0
-100 -128 -140 0
-100 128 140 0
100 -128 140 0
139 -141 0
-130 -141 0
130 -139 141 0
130 -139 -142 0
-130 139 -142 0
130 139 142 0
-130 -139 142 0
141 -143 0
-132 -143 0
132 -141 143 0
132 -141 -144 0
-132 141 -144 0
132 141 144 0
-132 -141 144 0
143 -145 0
-60 -145 0
60 -143 145 0
60 -143 -146 0
-60 143 -146 0
60 143 146 0
-60 -143 146 0
145 -147 0
-101 -147 0
101 -145 147 0
-20 101 -145 0
-20 -101 145 0
20 101 145 0
20 -101 -145 0
-19 147 0
19 -147 0
-18 -147 0
18 147 0
-17 19 0
17 -19 0
-16 -19 0
16 19 0
-15 17 0
15 -17 0
-14 -17 0
14 17 0
-13 15 0
13 -15 0
-12 -15 0
12 15 0
-11 13 0
11 -13 0
-10 -13 0
10 13 0
-9 11 0
9 -11 0
-8 -11 0
8 11 0
-7 9 0
7 -9 0
-6 -9 0
6 9 0
-5 73 0
-5 100 0
5 -73 -100 0
-73 100 0
73 -100 0
4 -82 -128 0
4 -5 -82 0
4 -5 -128 0
-4 82 128 0
-4 5 82 0
-4 5 128 0
-4 82 0
-4 128 0
-4 5 0
5 82 128 0
3 -84 -130 0
3 -4 -84 0
3 -4 -130 0
-3 84 130 0
-3 4 84 0
-3 4 130 0
3 -84 0
3 -130 0
3 -4 0
-4 -84 -130 0
2 -86 -132 0
2 -3 -86 0
2 -3 -132 0
-2 86 132 0
-2 3 86 0
-2 3 132 0
-2 86 0
-2 132 0
-2 3 0
3 86 132 0
1 -43 -60 0
1 -2 -43 0
1 -2 -60 0
-1 43 60 0
-1 2 43 0
-1 2 60 0
1 -43 0
1 -60 0
1 -2 0
-2 -43 -60 0
-58 -101 0
-1 -58 0
-1 -101 0
1 58 101 0
